sing20220827.12
TTAA  77111 48698
99006 25422 03506 00086 25016 09504 92767 20402 00000
85493 16213 29004 70128 08818 04012 50585 05900 08519
40757 14717 07523 30970 28528 09531 25097 39934 08531
20245 52737 07537 15423 69138 07547 10655 84141 09541
88101 84932 09539
77999=
TTCC  77117 48698
70862 74150 09016
88999
77999=
TTDD  7711/ 48698
11942 78357 22852 71558 33809 70357 44711 74347 55667 74156
66621 69958
21212 11946 08058 22867 09054 33814 10029 44726 12012 55704
09516 66621 07537=
